n = 3;
n2 = 4;
n3 = 5;
match12 = [|
3.0, 1.0, 3.0, 3.0, 3.0|
3.0, 3.0, 1.0, 3.0, 3.0|
1.0, 3.0, 3.0, 3.0, 3.0|
3.0, 3.0, 3.0, 3.0, 3.0|
3.0, 3.0, 3.0, 3.0, 3.0|];
match23 = [|
3.0, 3.0, 3.0, 1.0, 3.0|
3.0, 1.0, 3.0, 3.0, 3.0|
3.0, 3.0, 1.0, 3.0, 3.0|
3.0, 3.0, 3.0, 3.0, 3.0|
3.0, 3.0, 3.0, 3.0, 3.0|];
match31 = [|
3.0, 3.0, 3.0, 3.0, 3.0|
1.0, 3.0, 3.0, 3.0, 3.0|
3.0, 1.0, 3.0, 3.0, 3.0|
3.0, 3.0, 1.0, 3.0, 3.0|
3.0, 3.0, 1.0, 3.0, 3.0|];



